nN = 8;
nR = 24;
nH = 2;

a = [[17, 15, 21, 16, 15, 25, 15, 15, 24, 23, 17, 18, 25, 24, 24, 22, 17, 22, 19, 24, 25, 21, 23, 21], [17, 21, 19, 17, 20, 16, 19, 23, 22, 23, 22, 16, 18, 24, 17, 15, 20, 22, 20, 24, 19, 19, 19, 25], [23, 18, 25, 24, 20, 17, 23, 19, 22, 24, 24, 24, 15, 25, 24, 18, 21, 24, 24, 16, 16, 15, 20, 19], [15, 23, 24, 19, 22, 19, 22, 24, 24, 21, 22, 18, 21, 22, 19, 19, 23, 21, 20, 18, 15, 16, 15, 19], [17, 21, 22, 20, 25, 16, 21, 16, 21, 19, 22, 25, 19, 19, 18, 23, 16, 15, 25, 15, 20, 25, 18, 17], [20, 20, 23, 18, 22, 25, 15, 19, 15, 16, 25, 25, 23, 22, 16, 21, 17, 22, 17, 19, 16, 25, 15, 18], [21, 18, 22, 15, 24, 23, 24, 20, 21, 24, 16, 16, 18, 17, 17, 19, 20, 24, 17, 20, 16, 22, 16, 21], [25, 16, 25, 16, 15, 22, 21, 19, 15, 21, 21, 18, 21, 17, 17, 19, 18, 22, 20, 16, 16, 18, 25, 15]];
c = [[[0, 0, 0, 0, 0, 0, 0, 0, 0, 0, 0, 0, 0, 0, 0, 0, 0, 0, 0, 0, 0, 0, 0, 0], [34, 50, 38, 47, 43, 34, 43, 38, 35, 33, 35, 34, 49, 44, 47, 30, 40, 30, 47, 42, 47, 37, 48, 33], [40, 38, 42, 49, 41, 39, 43, 47, 46, 30, 39, 40, 36, 31, 34, 42, 48, 33, 37, 30, 35, 31, 39, 46], [41, 46, 31, 38, 40, 30, 35, 49, 49, 50, 38, 41, 35, 49, 31, 42, 37, 40, 39, 49, 38, 39, 34, 39], [35, 34, 33, 43, 45, 50, 48, 39, 45, 48, 38, 31, 36, 32, 32, 45, 48, 39, 41, 48, 42, 33, 33, 37], [32, 47, 48, 47, 42, 42, 34, 35, 36, 44, 46, 46, 48, 48, 41, 50, 30, 45, 39, 36, 42, 42, 42, 32], [35, 38, 38, 40, 50, 33, 50, 30, 34, 39, 49, 38, 48, 38, 32, 43, 36, 47, 40, 37, 44, 44, 38, 31], [50, 38, 48, 39, 43, 41, 33, 30, 46, 32, 49, 36, 36, 50, 41, 45, 40, 42, 36, 41, 31, 50, 37, 35]], [[0, 0, 0, 0, 0, 0, 0, 0, 0, 0, 0, 0, 0, 0, 0, 0, 0, 0, 0, 0, 0, 0, 0, 0], [0, 0, 0, 0, 0, 0, 0, 0, 0, 0, 0, 0, 0, 0, 0, 0, 0, 0, 0, 0, 0, 0, 0, 0], [45, 38, 44, 45, 42, 38, 34, 31, 50, 33, 34, 38, 48, 41, 45, 42, 38, 40, 49, 39, 30, 45, 30, 41], [31, 32, 41, 32, 49, 32, 31, 47, 47, 44, 40, 41, 46, 46, 38, 47, 43, 43, 50, 33, 31, 36, 46, 38], [33, 31, 42, 48, 45, 34, 41, 33, 46, 50, 40, 48, 48, 47, 38, 45, 39, 43, 33, 49, 34, 41, 47, 47], [38, 49, 34, 41, 45, 40, 35, 35, 31, 37, 33, 41, 42, 49, 30, 36, 34, 45, 41, 48, 44, 40, 30, 32], [39, 46, 36, 31, 39, 40, 44, 46, 48, 39, 44, 40, 32, 30, 50, 44, 35, 50, 38, 46, 41, 47, 39, 46], [40, 40, 41, 44, 42, 41, 33, 38, 46, 31, 37, 41, 47, 50, 45, 39, 47, 44, 41, 48, 45, 49, 36, 44]], [[0, 0, 0, 0, 0, 0, 0, 0, 0, 0, 0, 0, 0, 0, 0, 0, 0, 0, 0, 0, 0, 0, 0, 0], [0, 0, 0, 0, 0, 0, 0, 0, 0, 0, 0, 0, 0, 0, 0, 0, 0, 0, 0, 0, 0, 0, 0, 0], [0, 0, 0, 0, 0, 0, 0, 0, 0, 0, 0, 0, 0, 0, 0, 0, 0, 0, 0, 0, 0, 0, 0, 0], [41, 47, 49, 48, 43, 41, 31, 32, 49, 39, 34, 36, 32, 36, 43, 34, 49, 45, 41, 39, 41, 34, 46, 38], [30, 49, 42, 37, 48, 48, 50, 48, 44, 42, 38, 41, 49, 36, 46, 31, 32, 44, 44, 35, 36, 50, 50, 47], [33, 47, 48, 36, 42, 44, 41, 30, 41, 50, 42, 50, 39, 45, 37, 43, 47, 42, 46, 34, 40, 36, 36, 38], [49, 46, 47, 46, 38, 39, 44, 45, 44, 44, 34, 43, 44, 50, 48, 44, 37, 45, 36, 40, 42, 43, 36, 48], [36, 36, 45, 46, 43, 41, 48, 39, 45, 31, 41, 50, 35, 38, 37, 47, 45, 31, 49, 49, 35, 41, 40, 45]], [[0, 0, 0, 0, 0, 0, 0, 0, 0, 0, 0, 0, 0, 0, 0, 0, 0, 0, 0, 0, 0, 0, 0, 0], [0, 0, 0, 0, 0, 0, 0, 0, 0, 0, 0, 0, 0, 0, 0, 0, 0, 0, 0, 0, 0, 0, 0, 0], [0, 0, 0, 0, 0, 0, 0, 0, 0, 0, 0, 0, 0, 0, 0, 0, 0, 0, 0, 0, 0, 0, 0, 0], [0, 0, 0, 0, 0, 0, 0, 0, 0, 0, 0, 0, 0, 0, 0, 0, 0, 0, 0, 0, 0, 0, 0, 0], [32, 37, 43, 46, 50, 31, 41, 36, 50, 33, 33, 32, 50, 43, 40, 36, 36, 31, 39, 49, 44, 49, 50, 47], [42, 49, 49, 41, 50, 36, 49, 36, 31, 37, 40, 46, 42, 43, 44, 36, 35, 41, 36, 38, 47, 40, 33, 30], [45, 50, 30, 32, 36, 35, 32, 40, 41, 31, 40, 34, 35, 46, 43, 43, 48, 50, 42, 40, 47, 44, 31, 41], [34, 39, 48, 50, 48, 43, 40, 48, 34, 43, 30, 35, 49, 45, 48, 36, 41, 43, 44, 38, 48, 39, 50, 33]], [[0, 0, 0, 0, 0, 0, 0, 0, 0, 0, 0, 0, 0, 0, 0, 0, 0, 0, 0, 0, 0, 0, 0, 0], [0, 0, 0, 0, 0, 0, 0, 0, 0, 0, 0, 0, 0, 0, 0, 0, 0, 0, 0, 0, 0, 0, 0, 0], [0, 0, 0, 0, 0, 0, 0, 0, 0, 0, 0, 0, 0, 0, 0, 0, 0, 0, 0, 0, 0, 0, 0, 0], [0, 0, 0, 0, 0, 0, 0, 0, 0, 0, 0, 0, 0, 0, 0, 0, 0, 0, 0, 0, 0, 0, 0, 0], [0, 0, 0, 0, 0, 0, 0, 0, 0, 0, 0, 0, 0, 0, 0, 0, 0, 0, 0, 0, 0, 0, 0, 0], [43, 50, 36, 50, 41, 34, 47, 35, 43, 41, 31, 30, 49, 42, 30, 43, 38, 39, 46, 42, 38, 40, 40, 47], [48, 39, 33, 37, 47, 43, 31, 47, 42, 49, 36, 40, 39, 32, 37, 37, 48, 48, 31, 50, 33, 40, 48, 37], [33, 34, 48, 48, 45, 48, 42, 44, 36, 49, 32, 33, 33, 46, 31, 47, 31, 36, 44, 49, 33, 35, 46, 34]], [[0, 0, 0, 0, 0, 0, 0, 0, 0, 0, 0, 0, 0, 0, 0, 0, 0, 0, 0, 0, 0, 0, 0, 0], [0, 0, 0, 0, 0, 0, 0, 0, 0, 0, 0, 0, 0, 0, 0, 0, 0, 0, 0, 0, 0, 0, 0, 0], [0, 0, 0, 0, 0, 0, 0, 0, 0, 0, 0, 0, 0, 0, 0, 0, 0, 0, 0, 0, 0, 0, 0, 0], [0, 0, 0, 0, 0, 0, 0, 0, 0, 0, 0, 0, 0, 0, 0, 0, 0, 0, 0, 0, 0, 0, 0, 0], [0, 0, 0, 0, 0, 0, 0, 0, 0, 0, 0, 0, 0, 0, 0, 0, 0, 0, 0, 0, 0, 0, 0, 0], [0, 0, 0, 0, 0, 0, 0, 0, 0, 0, 0, 0, 0, 0, 0, 0, 0, 0, 0, 0, 0, 0, 0, 0], [44, 42, 32, 45, 49, 32, 37, 33, 47, 34, 45, 42, 34, 44, 34, 32, 47, 48, 37, 39, 42, 41, 42, 46], [31, 33, 45, 44, 44, 31, 33, 35, 32, 45, 40, 42, 47, 32, 31, 34, 42, 50, 44, 31, 41, 42, 45, 41]], [[0, 0, 0, 0, 0, 0, 0, 0, 0, 0, 0, 0, 0, 0, 0, 0, 0, 0, 0, 0, 0, 0, 0, 0], [0, 0, 0, 0, 0, 0, 0, 0, 0, 0, 0, 0, 0, 0, 0, 0, 0, 0, 0, 0, 0, 0, 0, 0], [0, 0, 0, 0, 0, 0, 0, 0, 0, 0, 0, 0, 0, 0, 0, 0, 0, 0, 0, 0, 0, 0, 0, 0], [0, 0, 0, 0, 0, 0, 0, 0, 0, 0, 0, 0, 0, 0, 0, 0, 0, 0, 0, 0, 0, 0, 0, 0], [0, 0, 0, 0, 0, 0, 0, 0, 0, 0, 0, 0, 0, 0, 0, 0, 0, 0, 0, 0, 0, 0, 0, 0], [0, 0, 0, 0, 0, 0, 0, 0, 0, 0, 0, 0, 0, 0, 0, 0, 0, 0, 0, 0, 0, 0, 0, 0], [0, 0, 0, 0, 0, 0, 0, 0, 0, 0, 0, 0, 0, 0, 0, 0, 0, 0, 0, 0, 0, 0, 0, 0], [41, 45, 42, 41, 31, 49, 30, 50, 31, 31, 37, 38, 33, 50, 39, 39, 32, 36, 48, 37, 45, 37, 37, 35]], [[0, 0, 0, 0, 0, 0, 0, 0, 0, 0, 0, 0, 0, 0, 0, 0, 0, 0, 0, 0, 0, 0, 0, 0], [0, 0, 0, 0, 0, 0, 0, 0, 0, 0, 0, 0, 0, 0, 0, 0, 0, 0, 0, 0, 0, 0, 0, 0], [0, 0, 0, 0, 0, 0, 0, 0, 0, 0, 0, 0, 0, 0, 0, 0, 0, 0, 0, 0, 0, 0, 0, 0], [0, 0, 0, 0, 0, 0, 0, 0, 0, 0, 0, 0, 0, 0, 0, 0, 0, 0, 0, 0, 0, 0, 0, 0], [0, 0, 0, 0, 0, 0, 0, 0, 0, 0, 0, 0, 0, 0, 0, 0, 0, 0, 0, 0, 0, 0, 0, 0], [0, 0, 0, 0, 0, 0, 0, 0, 0, 0, 0, 0, 0, 0, 0, 0, 0, 0, 0, 0, 0, 0, 0, 0], [0, 0, 0, 0, 0, 0, 0, 0, 0, 0, 0, 0, 0, 0, 0, 0, 0, 0, 0, 0, 0, 0, 0, 0], [0, 0, 0, 0, 0, 0, 0, 0, 0, 0, 0, 0, 0, 0, 0, 0, 0, 0, 0, 0, 0, 0, 0, 0]]];

q = [[[6, 114], [17, 124], [16, 110], [17, 114], [6, 106], [7, 116], [7, 119], [23, 116], [6, 121], [23, 115], [13, 110], [17, 109], [15, 125], [17, 124], [5, 105], [21, 121], [18, 114], [23, 122], [21, 119], [10, 113], [8, 117], [12, 124], [10, 110], [8, 125]], [[10, 108], [17, 122], [5, 123], [24, 119], [23, 117], [5, 113], [14, 110], [10, 113], [17, 110], [14, 112], [18, 121], [10, 122], [21, 105], [14, 122], [6, 121], [9, 124], [9, 121], [15, 115], [8, 122], [10, 116], [24, 119], [20, 125], [18, 111], [14, 125]], [[18, 113], [7, 125], [5, 114], [15, 118], [14, 123], [8, 121], [12, 111], [21, 124], [7, 117], [7, 120], [25, 118], [13, 109], [11, 109], [25, 121], [7, 113], [19, 121], [7, 119], [6, 119], [11, 111], [24, 120], [21, 113], [5, 105], [20, 120], [20, 111]], [[5, 116], [13, 111], [13, 117], [6, 105], [6, 114], [18, 111], [19, 113], [7, 110], [19, 119], [6, 110], [9, 110], [12, 115], [12, 106], [14, 117], [16, 113], [18, 124], [21, 118], [8, 120], [5, 114], [10, 111], [17, 114], [8, 124], [11, 110], [8, 109]], [[8, 117], [8, 123], [25, 121], [8, 113], [23, 110], [13, 123], [9, 122], [23, 116], [21, 109], [22, 122], [7, 125], [17, 111], [14, 108], [22, 120], [19, 114], [12, 117], [17, 112], [5, 117], [13, 108], [12, 114], [19, 119], [14, 118], [12, 109], [20, 109]], [[12, 118], [17, 121], [15, 112], [21, 120], [18, 112], [21, 114], [15, 113], [24, 109], [22, 113], [17, 124], [10, 106], [13, 124], [20, 110], [22, 120], [21, 106], [12, 108], [13, 123], [18, 124], [8, 118], [24, 117], [12, 110], [8, 122], [17, 110], [5, 121]], [[7, 111], [15, 109], [12, 110], [18, 109], [17, 119], [7, 124], [16, 115], [19, 113], [16, 124], [24, 109], [18, 105], [16, 113], [21, 107], [7, 124], [5, 114], [17, 110], [12, 113], [6, 125], [14, 118], [23, 120], [9, 116], [11, 119], [23, 122], [12, 109]], [[25, 109], [24, 107], [22, 122], [12, 122], [7, 114], [23, 120], [24, 107], [8, 115], [18, 107], [22, 118], [18, 106], [11, 105], [6, 115], [5, 108], [25, 106], [16, 113], [20, 114], [25, 113], [7, 109], [17, 125], [15, 106], [20, 115], [16, 116], [20, 114]]];
Q = [[32, 280], [33, 282], [32, 280], [28, 274], [36, 278], [38, 278], [34, 276], [40, 271]];
